DATASET = "thpack3";
INSTANCE = "095";

WIDTH = 233;
HEIGHT = 220;
LENGTH = 587;

NO_OF_SHAPES = 8;
size = [|
  101,69,20 |
  108,66,54 |
  74,62,33 |
  69,61,33 |
  71,64,31 |
  38,32,30 |
  108,47,37 |
  100,41,36 |
|];

verticality = [|
  0,0,1 |
  0,1,1 |
  0,1,1 |
  0,1,1 |
  0,0,1 |
  1,1,1 |
  0,1,1 |
  0,1,1 |
|];

box_count = [
  18,
  22,
  26,
  25,
  21,
  17,
  21,
  28,
];
